12448.0
1 1 1 1 1 1 1 1 1 1 0 1 1 1 0 1 0 1 1 1 1 1 1 1 1 1 1 1 1 1 
34 51 
62 66 
31 32 58 
12 
29 40 
30 44 60 
27 54 55 
19 36 
16 
13 52 

15 39 49 
18 37 41 
25 33 

2 17 

24 47 48 
0 14 53 
1 56 
23 57 
7 38 50 
5 22 35 
11 43 
3 10 
4 20 45 
6 21 46 
8 61 64 67 
42 65 68 
9 26 28 59 63 69 
